22 3
5 6 4
0 0 0 0 20 2 3 4 5 6 7 8 9 10 11 12 13 14 15 16 17 18 19 20 21
4 2 1 0 5 22 20 14 15 21
3 2 2 0 3 22 20 8
2 0 3 2 4 22 11 11 6
2 1 2 1 2 22 17
1 1 0 0 1 22
5 1 2 1 1 22
1 1 2 1 3 22 13 11
2 0 2 2 2 22 17
4 0 1 1 1 22
5 2 1 0 1 22
3 1 3 2 1 22
1 1 1 0 1 22
5 2 3 2 1 22
4 0 2 2 1 22
4 0 2 0 2 22 17
5 2 1 2 2 22 21
2 2 3 1 1 22
1 2 1 2 1 22
3 2 1 0 1 22
1 0 2 2 1 22
0 0 0 0 0
